c Reduced graph for GEOM120b_1 generated by Cyril Grelier
p edge 117 1468
e 1 2
e 1 3
e 1 4
e 1 5
e 1 11
e 1 12
e 1 13
e 1 14
e 1 16
e 1 17
e 1 19
e 1 40
e 1 42
e 1 43
e 1 45
e 1 46
e 1 47
e 1 48
e 1 50
e 1 52
e 1 53
e 1 64
e 1 77
e 1 82
e 1 83
e 1 84
e 1 86
e 1 87
e 1 89
e 1 90
e 1 91
e 1 100
e 1 103
e 1 106
e 1 108
e 2 3
e 2 4
e 2 5
e 2 6
e 2 7
e 2 9
e 2 12
e 2 14
e 2 18
e 2 19
e 2 25
e 2 40
e 2 41
e 2 42
e 2 43
e 2 44
e 2 45
e 2 47
e 2 48
e 2 49
e 2 50
e 2 52
e 2 58
e 2 77
e 2 83
e 2 85
e 2 86
e 2 88
e 2 89
e 2 90
e 2 91
e 2 93
e 2 94
e 2 95
e 3 4
e 3 5
e 3 6
e 3 12
e 3 40
e 3 41
e 3 42
e 3 43
e 3 44
e 3 45
e 3 46
e 3 47
e 3 48
e 3 49
e 3 50
e 3 52
e 3 56
e 3 57
e 3 77
e 3 78
e 3 79
e 3 80
e 3 83
e 3 84
e 3 85
e 3 86
e 3 87
e 3 88
e 3 89
e 3 90
e 3 91
e 3 93
e 4 5
e 4 6
e 4 12
e 4 14
e 4 40
e 4 41
e 4 42
e 4 43
e 4 44
e 4 45
e 4 46
e 4 47
e 4 48
e 4 49
e 4 50
e 4 52
e 4 77
e 4 78
e 4 80
e 4 82
e 4 83
e 4 84
e 4 85
e 4 86
e 4 87
e 4 89
e 4 90
e 4 91
e 4 93
e 4 94
e 5 12
e 5 14
e 5 19
e 5 40
e 5 41
e 5 42
e 5 43
e 5 45
e 5 46
e 5 47
e 5 48
e 5 49
e 5 50
e 5 52
e 5 53
e 5 58
e 5 64
e 5 77
e 5 82
e 5 83
e 5 84
e 5 85
e 5 86
e 5 87
e 5 89
e 5 90
e 5 91
e 5 94
e 5 103
e 6 7
e 6 9
e 6 18
e 6 20
e 6 22
e 6 30
e 6 32
e 6 40
e 6 41
e 6 44
e 6 45
e 6 48
e 6 49
e 6 56
e 6 57
e 6 65
e 6 66
e 6 70
e 6 77
e 6 78
e 6 79
e 6 85
e 6 88
e 6 89
e 6 91
e 6 93
e 6 99
e 6 112
e 6 113
e 7 9
e 7 18
e 7 20
e 7 21
e 7 23
e 7 24
e 7 25
e 7 27
e 7 29
e 7 30
e 7 44
e 7 49
e 7 52
e 7 61
e 7 62
e 7 68
e 7 69
e 7 70
e 7 71
e 7 85
e 7 88
e 7 89
e 7 91
e 7 93
e 7 94
e 7 95
e 7 101
e 7 109
e 7 111
e 8 10
e 8 11
e 8 13
e 8 15
e 8 17
e 8 26
e 8 40
e 8 41
e 8 42
e 8 46
e 8 51
e 8 53
e 8 54
e 8 55
e 8 59
e 8 60
e 8 63
e 8 77
e 8 78
e 8 79
e 8 80
e 8 81
e 8 84
e 8 92
e 8 96
e 8 97
e 8 98
e 8 104
e 8 105
e 8 107
e 9 18
e 9 20
e 9 21
e 9 23
e 9 24
e 9 27
e 9 29
e 9 30
e 9 44
e 9 49
e 9 61
e 9 62
e 9 66
e 9 68
e 9 69
e 9 70
e 9 71
e 9 85
e 9 88
e 9 89
e 9 91
e 9 93
e 9 95
e 9 101
e 9 109
e 9 113
e 10 11
e 10 13
e 10 15
e 10 26
e 10 40
e 10 41
e 10 42
e 10 51
e 10 54
e 10 59
e 10 60
e 10 63
e 10 77
e 10 78
e 10 79
e 10 80
e 10 81
e 10 84
e 10 92
e 10 96
e 10 97
e 10 98
e 10 102
e 10 104
e 10 105
e 10 107
e 10 110
e 10 114
e 11 13
e 11 15
e 11 17
e 11 40
e 11 41
e 11 42
e 11 43
e 11 45
e 11 46
e 11 47
e 11 53
e 11 54
e 11 55
e 11 59
e 11 60
e 11 77
e 11 78
e 11 80
e 11 82
e 11 83
e 11 84
e 11 87
e 11 92
e 11 97
e 11 98
e 11 100
e 12 14
e 12 19
e 12 25
e 12 40
e 12 43
e 12 45
e 12 47
e 12 48
e 12 50
e 12 52
e 12 58
e 12 62
e 12 64
e 12 67
e 12 83
e 12 85
e 12 86
e 12 89
e 12 90
e 12 91
e 12 94
e 12 95
e 12 111
e 12 115
e 13 16
e 13 17
e 13 28
e 13 31
e 13 33
e 13 34
e 13 40
e 13 42
e 13 43
e 13 46
e 13 53
e 13 54
e 13 55
e 13 59
e 13 60
e 13 74
e 13 82
e 13 83
e 13 84
e 13 87
e 13 92
e 13 97
e 13 98
e 13 100
e 14 19
e 14 24
e 14 25
e 14 43
e 14 47
e 14 48
e 14 50
e 14 52
e 14 58
e 14 62
e 14 64
e 14 67
e 14 75
e 14 86
e 14 89
e 14 90
e 14 91
e 14 94
e 14 95
e 14 101
e 14 111
e 14 115
e 15 26
e 15 41
e 15 51
e 15 54
e 15 59
e 15 60
e 15 63
e 15 73
e 15 77
e 15 78
e 15 79
e 15 80
e 15 81
e 15 92
e 15 96
e 15 97
e 15 98
e 15 99
e 15 102
e 15 104
e 15 105
e 15 107
e 15 110
e 15 114
e 16 17
e 16 28
e 16 31
e 16 33
e 16 34
e 16 37
e 16 42
e 16 43
e 16 46
e 16 53
e 16 55
e 16 64
e 16 72
e 16 74
e 16 82
e 16 83
e 16 84
e 16 87
e 16 100
e 16 103
e 16 106
e 16 108
e 16 117
e 17 28
e 17 31
e 17 33
e 17 34
e 17 42
e 17 43
e 17 46
e 17 53
e 17 55
e 17 59
e 17 72
e 17 74
e 17 82
e 17 83
e 17 84
e 17 87
e 17 92
e 17 97
e 17 98
e 17 100
e 18 20
e 18 21
e 18 22
e 18 23
e 18 29
e 18 30
e 18 44
e 18 49
e 18 57
e 18 61
e 18 66
e 18 68
e 18 70
e 18 71
e 18 85
e 18 88
e 18 89
e 18 91
e 18 93
e 18 109
e 18 113
e 19 25
e 19 38
e 19 39
e 19 43
e 19 47
e 19 50
e 19 52
e 19 58
e 19 64
e 19 67
e 19 75
e 19 76
e 19 86
e 19 90
e 19 94
e 19 95
e 19 103
e 19 106
e 19 115
e 20 22
e 20 23
e 20 29
e 20 30
e 20 32
e 20 44
e 20 49
e 20 56
e 20 57
e 20 61
e 20 65
e 20 66
e 20 68
e 20 70
e 20 71
e 20 85
e 20 88
e 20 93
e 20 109
e 20 113
e 21 23
e 21 24
e 21 25
e 21 27
e 21 29
e 21 35
e 21 36
e 21 44
e 21 52
e 21 61
e 21 62
e 21 68
e 21 69
e 21 71
e 21 94
e 21 95
e 21 101
e 21 109
e 21 111
e 21 116
e 22 30
e 22 32
e 22 41
e 22 49
e 22 51
e 22 56
e 22 57
e 22 65
e 22 66
e 22 77
e 22 78
e 22 79
e 22 81
e 22 85
e 22 88
e 22 93
e 22 99
e 22 102
e 22 112
e 22 113
e 23 24
e 23 27
e 23 29
e 23 30
e 23 44
e 23 61
e 23 62
e 23 68
e 23 69
e 23 70
e 23 71
e 23 85
e 23 88
e 23 93
e 23 95
e 23 101
e 23 109
e 24 25
e 24 27
e 24 29
e 24 35
e 24 36
e 24 44
e 24 52
e 24 58
e 24 61
e 24 62
e 24 69
e 24 94
e 24 95
e 24 101
e 24 109
e 24 111
e 24 116
e 25 27
e 25 35
e 25 36
e 25 44
e 25 52
e 25 58
e 25 62
e 25 67
e 25 75
e 25 86
e 25 94
e 25 95
e 25 101
e 25 111
e 25 116
e 26 51
e 26 54
e 26 60
e 26 63
e 26 73
e 26 78
e 26 79
e 26 80
e 26 81
e 26 92
e 26 96
e 26 98
e 26 99
e 26 102
e 26 104
e 26 105
e 26 107
e 26 110
e 26 114
e 27 29
e 27 35
e 27 36
e 27 44
e 27 61
e 27 62
e 27 68
e 27 69
e 27 71
e 27 94
e 27 95
e 27 101
e 27 109
e 27 111
e 27 116
e 28 31
e 28 33
e 28 34
e 28 37
e 28 46
e 28 53
e 28 55
e 28 72
e 28 74
e 28 82
e 28 83
e 28 87
e 28 100
e 28 103
e 28 106
e 28 108
e 28 117
e 29 30
e 29 44
e 29 61
e 29 68
e 29 69
e 29 70
e 29 71
e 29 88
e 29 93
e 29 101
e 29 109
e 30 44
e 30 49
e 30 61
e 30 66
e 30 68
e 30 70
e 30 71
e 30 88
e 30 93
e 30 109
e 30 113
e 31 33
e 31 34
e 31 37
e 31 46
e 31 53
e 31 55
e 31 72
e 31 74
e 31 82
e 31 83
e 31 100
e 31 103
e 31 106
e 31 108
e 31 117
e 32 49
e 32 51
e 32 56
e 32 57
e 32 65
e 32 66
e 32 79
e 32 81
e 32 88
e 32 99
e 32 102
e 32 110
e 32 112
e 32 113
e 33 34
e 33 37
e 33 53
e 33 55
e 33 72
e 33 74
e 33 82
e 33 100
e 33 106
e 33 108
e 33 117
e 34 37
e 34 53
e 34 55
e 34 72
e 34 74
e 34 82
e 34 100
e 34 106
e 34 108
e 34 117
e 35 36
e 35 58
e 35 62
e 35 67
e 35 69
e 35 94
e 35 95
e 35 101
e 35 111
e 35 116
e 36 58
e 36 62
e 36 67
e 36 69
e 36 94
e 36 95
e 36 101
e 36 111
e 36 116
e 37 72
e 37 74
e 37 100
e 37 108
e 37 117
e 38 39
e 38 58
e 38 64
e 38 67
e 38 75
e 38 76
e 38 115
e 39 58
e 39 67
e 39 75
e 39 76
e 39 115
e 40 41
e 40 42
e 40 43
e 40 45
e 40 46
e 40 47
e 40 48
e 40 49
e 40 50
e 40 53
e 40 54
e 40 55
e 40 59
e 40 77
e 40 78
e 40 80
e 40 81
e 40 82
e 40 83
e 40 84
e 40 85
e 40 86
e 40 87
e 40 89
e 40 90
e 40 91
e 40 92
e 40 97
e 41 42
e 41 43
e 41 45
e 41 47
e 41 48
e 41 49
e 41 50
e 41 51
e 41 54
e 41 56
e 41 57
e 41 65
e 41 77
e 41 78
e 41 79
e 41 80
e 41 81
e 41 84
e 41 85
e 41 86
e 41 88
e 41 89
e 41 91
e 41 92
e 41 93
e 41 96
e 41 99
e 42 43
e 42 45
e 42 46
e 42 47
e 42 48
e 42 50
e 42 53
e 42 54
e 42 55
e 42 59
e 42 60
e 42 77
e 42 78
e 42 80
e 42 82
e 42 83
e 42 84
e 42 86
e 42 87
e 42 90
e 42 92
e 42 97
e 42 98
e 42 100
e 42 103
e 43 45
e 43 46
e 43 47
e 43 48
e 43 50
e 43 52
e 43 53
e 43 55
e 43 64
e 43 77
e 43 82
e 43 83
e 43 84
e 43 86
e 43 87
e 43 89
e 43 90
e 43 91
e 43 100
e 43 103
e 43 106
e 43 108
e 44 45
e 44 48
e 44 49
e 44 52
e 44 61
e 44 62
e 44 66
e 44 68
e 44 69
e 44 70
e 44 71
e 44 85
e 44 88
e 44 89
e 44 91
e 44 93
e 44 94
e 44 95
e 44 101
e 44 109
e 45 46
e 45 47
e 45 48
e 45 49
e 45 50
e 45 56
e 45 57
e 45 77
e 45 78
e 45 79
e 45 80
e 45 83
e 45 84
e 45 85
e 45 86
e 45 87
e 45 88
e 45 89
e 45 90
e 45 91
e 45 92
e 45 93
e 46 47
e 46 48
e 46 50
e 46 53
e 46 55
e 46 59
e 46 77
e 46 82
e 46 83
e 46 84
e 46 86
e 46 87
e 46 90
e 46 92
e 46 97
e 46 100
e 46 103
e 46 106
e 46 108
e 47 48
e 47 49
e 47 50
e 47 52
e 47 53
e 47 58
e 47 64
e 47 77
e 47 82
e 47 83
e 47 84
e 47 85
e 47 86
e 47 87
e 47 89
e 47 90
e 47 91
e 47 94
e 47 103
e 48 49
e 48 50
e 48 52
e 48 77
e 48 78
e 48 80
e 48 82
e 48 83
e 48 84
e 48 85
e 48 86
e 48 87
e 48 89
e 48 90
e 48 91
e 48 93
e 48 94
e 49 50
e 49 56
e 49 57
e 49 65
e 49 66
e 49 77
e 49 78
e 49 79
e 49 85
e 49 86
e 49 88
e 49 89
e 49 91
e 49 93
e 50 52
e 50 58
e 50 64
e 50 77
e 50 82
e 50 83
e 50 85
e 50 86
e 50 87
e 50 89
e 50 90
e 50 91
e 50 94
e 50 95
e 51 54
e 51 56
e 51 57
e 51 60
e 51 63
e 51 65
e 51 73
e 51 77
e 51 78
e 51 79
e 51 80
e 51 81
e 51 92
e 51 96
e 51 97
e 51 98
e 51 99
e 51 102
e 51 104
e 51 105
e 51 107
e 51 110
e 51 112
e 51 114
e 52 58
e 52 62
e 52 64
e 52 67
e 52 75
e 52 85
e 52 86
e 52 89
e 52 90
e 52 91
e 52 94
e 52 95
e 52 101
e 52 111
e 53 55
e 53 59
e 53 72
e 53 74
e 53 82
e 53 83
e 53 84
e 53 87
e 53 92
e 53 97
e 53 98
e 53 100
e 53 103
e 53 106
e 53 108
e 54 55
e 54 59
e 54 60
e 54 63
e 54 77
e 54 78
e 54 79
e 54 80
e 54 81
e 54 84
e 54 92
e 54 96
e 54 97
e 54 98
e 54 104
e 54 105
e 54 107
e 54 114
e 55 59
e 55 60
e 55 74
e 55 82
e 55 83
e 55 84
e 55 87
e 55 92
e 55 97
e 55 98
e 55 100
e 56 57
e 56 65
e 56 66
e 56 77
e 56 78
e 56 79
e 56 80
e 56 81
e 56 85
e 56 88
e 56 93
e 56 96
e 56 99
e 56 102
e 56 110
e 56 112
e 56 113
e 57 65
e 57 66
e 57 77
e 57 78
e 57 79
e 57 80
e 57 81
e 57 85
e 57 88
e 57 93
e 57 96
e 57 99
e 57 102
e 57 112
e 57 113
e 58 62
e 58 64
e 58 67
e 58 75
e 58 86
e 58 90
e 58 94
e 58 95
e 58 101
e 58 111
e 58 115
e 59 60
e 59 63
e 59 78
e 59 80
e 59 81
e 59 82
e 59 84
e 59 87
e 59 92
e 59 96
e 59 97
e 59 98
e 59 105
e 60 63
e 60 77
e 60 78
e 60 80
e 60 81
e 60 84
e 60 92
e 60 96
e 60 97
e 60 98
e 60 104
e 60 105
e 60 107
e 61 62
e 61 68
e 61 69
e 61 70
e 61 71
e 61 85
e 61 88
e 61 93
e 61 95
e 61 101
e 61 109
e 61 116
e 62 67
e 62 69
e 62 94
e 62 95
e 62 101
e 62 109
e 62 111
e 62 116
e 63 73
e 63 78
e 63 79
e 63 80
e 63 81
e 63 92
e 63 96
e 63 97
e 63 98
e 63 102
e 63 104
e 63 105
e 63 107
e 63 110
e 63 114
e 64 67
e 64 76
e 64 82
e 64 83
e 64 86
e 64 90
e 64 103
e 64 106
e 64 108
e 64 115
e 65 66
e 65 77
e 65 78
e 65 79
e 65 81
e 65 88
e 65 93
e 65 99
e 65 102
e 65 110
e 65 112
e 65 113
e 66 70
e 66 79
e 66 85
e 66 88
e 66 93
e 66 99
e 66 112
e 66 113
e 67 75
e 67 90
e 67 94
e 67 95
e 67 111
e 67 115
e 68 69
e 68 70
e 68 71
e 68 88
e 68 93
e 68 101
e 68 109
e 69 71
e 69 101
e 69 109
e 69 111
e 69 116
e 70 71
e 70 88
e 70 93
e 70 109
e 70 113
e 71 101
e 71 109
e 72 74
e 72 82
e 72 83
e 72 100
e 72 103
e 72 106
e 72 108
e 72 117
e 73 79
e 73 81
e 73 96
e 73 99
e 73 102
e 73 104
e 73 105
e 73 107
e 73 110
e 73 112
e 73 114
e 74 100
e 74 117
e 75 94
e 75 111
e 75 115
e 76 103
e 76 106
e 76 108
e 76 115
e 77 78
e 77 79
e 77 80
e 77 81
e 77 84
e 77 85
e 77 86
e 77 87
e 77 88
e 77 89
e 77 91
e 77 92
e 77 96
e 77 97
e 77 98
e 77 99
e 78 79
e 78 80
e 78 81
e 78 84
e 78 85
e 78 89
e 78 91
e 78 92
e 78 96
e 78 97
e 78 98
e 78 99
e 78 102
e 78 104
e 78 112
e 79 80
e 79 81
e 79 88
e 79 92
e 79 96
e 79 99
e 79 102
e 79 104
e 79 105
e 79 107
e 79 110
e 79 112
e 79 114
e 80 81
e 80 84
e 80 92
e 80 96
e 80 97
e 80 98
e 80 99
e 80 102
e 80 104
e 80 105
e 80 107
e 81 92
e 81 96
e 81 97
e 81 98
e 81 99
e 81 102
e 81 104
e 81 105
e 81 107
e 81 110
e 81 112
e 81 114
e 82 83
e 82 84
e 82 86
e 82 87
e 82 90
e 82 100
e 82 103
e 82 106
e 82 108
e 82 117
e 83 84
e 83 86
e 83 87
e 83 90
e 83 100
e 83 103
e 83 106
e 83 108
e 84 87
e 84 92
e 84 97
e 84 98
e 84 100
e 85 86
e 85 88
e 85 89
e 85 91
e 85 93
e 85 95
e 86 87
e 86 89
e 86 90
e 86 91
e 86 94
e 86 95
e 87 90
e 87 92
e 87 97
e 87 100
e 87 103
e 87 106
e 87 108
e 88 89
e 88 91
e 88 93
e 88 99
e 88 112
e 88 113
e 89 90
e 89 91
e 89 93
e 89 94
e 89 95
e 90 91
e 90 94
e 90 95
e 90 103
e 90 106
e 90 115
e 91 93
e 91 94
e 91 95
e 92 96
e 92 97
e 92 98
e 92 104
e 92 105
e 93 109
e 93 113
e 94 95
e 94 101
e 94 111
e 94 116
e 95 101
e 95 111
e 95 116
e 96 97
e 96 98
e 96 99
e 96 102
e 96 104
e 96 105
e 96 107
e 96 110
e 96 114
e 97 98
e 97 104
e 97 105
e 98 104
e 98 105
e 98 107
e 99 102
e 99 104
e 99 107
e 99 110
e 99 112
e 99 113
e 99 114
e 100 103
e 100 106
e 100 108
e 100 117
e 101 109
e 101 111
e 101 116
e 102 104
e 102 105
e 102 107
e 102 110
e 102 112
e 102 114
e 103 106
e 103 108
e 103 115
e 103 117
e 104 105
e 104 107
e 104 110
e 104 114
e 105 107
e 105 110
e 105 114
e 106 108
e 106 115
e 106 117
e 107 110
e 107 114
e 108 117
e 110 112
e 110 114
e 111 116
e 112 113
